158 7 109 130 191 87 144 173 159 84 19 168 125 14 156 68 72 43 76 113 132 197 66 6 71 55 35 198 80 185 172 48 111 78 93 199 89 166 51 138 0 42 91 9 86 162 47 1 176 85 155 73 161 110 10 184 196 60 139 12 65 120 33 136 123 177 11 98 77 15 45 21 189 175 104 174 40 129 126 106 183 53 70 118 147 99 148 181 103 108 149 24 61 92 59 134 124 171 186 194 26 2 63 20 150 94 44 165 82 31 97 79 69 102 167 56 182 30 140 187 58 117 115 154 81 62 17 180 41 169 128 190 107 192 164 90 67 163 50 101 54 39 74 3 100 178 153 88 28 83 95 119 160 46 96 37 25 27 114 121 142 38 36 195 112 29 135 8 137 145 193 179 22 18 116 146 16 152 57 75 122 52 143 105 127 13 141 4 23 32 64 34 133 151 49 5 188 157 170 131